c User generated cnf file
p cnf 13 75
3 -10 3 0 
1 13 -3 0 
5 -3 7 0 
10 5 -7 0 
3 1 -6 0 
6 -11 5 0 
1 -13 11 0 
6 -1 10 0 
11 7 -3 0 
11 -10 10 0 
3 12 -3 0 
9 1 -13 0 
10 13 -4 0 
3 12 -3 0 
5 7 -5 0 
5 13 -9 0 
8 13 -12 0 
7 2 -9 0 
6 -8 6 0 
6 -1 7 0 
4 2 -10 0 
12 13 -1 0 
11 10 -11 0 
8 7 -9 0 
12 -5 1 0 
2 10 -10 0 
12 -1 10 0 
5 -10 10 0 
4 -1 12 0 
3 4 -2 0 
8 7 -13 0 
1 -1 2 0 
9 -2 9 0 
11 11 -1 0 
2 -10 7 0 
6 8 -13 0 
4 -7 9 0 
3 5 -9 0 
5 -5 2 0 
3 3 -5 0 
10 -3 1 0 
5 4 -10 0 
11 -10 3 0 
1 -7 11 0 
7 -12 3 0 
4 -11 10 0 
1 10 -5 0 
7 12 -4 0 
8 -3 12 0 
4 -8 4 0 
1 5 -7 0 
6 11 -6 0 
7 -1 13 0 
10 4 -13 0 
7 -1 13 0 
6 13 -13 0 
8 13 -6 0 
5 -8 11 0 
2 -4 12 0 
9 -7 5 0 
3 -7 8 0 
4 -12 7 0 
1 8 -9 0 
11 9 -8 0 
5 -8 9 0 
12 13 -4 0 
8 3 -4 0 
11 -12 10 0 
4 4 -6 0 
3 -1 5 0 
2 -10 11 0 
7 5 -2 0 
10 8 -8 0 
8 -6 7 0 
13 10 -1 0 
